
Log started (V11.0.0) Fri Apr 18 09:56:24 2008

Tried aggregator 1 time.
Reduced MIP has 210 rows, 2001 columns, and 4010 nonzeros.
Presolve time =    0.02 sec.
Clique table members: 200.
MIP emphasis: balance optimality and feasibility.
MIP search method: dynamic search.
Parallel mode: none, using 1 thread.
Root relaxation solution time =    0.05 sec.

        Nodes                                         Cuts/
   Node  Left     Objective  IInf  Best Integer     Best Node    ItCnt     Gap

*     0+    0                        29405.0000     2173.8034      273   92.61%
*     0+    0                         2191.0000     2173.8034      273    0.78%
      0     0     2174.2389    21     2191.0000      Fract: 6      279    0.76%
      0     0     2174.5269    30     2191.0000       Cuts: 6      298    0.75%
      0     0     2174.6508    38     2191.0000       Cuts: 6      312    0.75%
      0     0     2174.6928    43     2191.0000       Cuts: 4      323    0.74%
      0     0     2174.7486    45     2191.0000       Cuts: 6      343    0.74%
*     0+    0                         2190.0000     2174.7486      343    0.70%
*     0+    0                         2188.0000     2174.7486      343    0.61%
      0     2     2175.0000    42     2188.0000     2174.7486      343    0.61%
    100    87     2179.0000    20     2188.0000     2175.0000     3289    0.59%
    200   139     2182.0000    22     2188.0000     2175.0000     9540    0.59%
    300   182     2183.0000    20     2188.0000     2175.0000    16445    0.59%
    400   231     2176.0000    19     2188.0000     2175.0000    19420    0.59%
    500   305     2176.0000    20     2188.0000     2175.0000    22488    0.59%
    600   319     2181.2277    21     2188.0000     2175.0000    24363    0.59%
    700   321     2177.0000    27     2188.0000     2175.0000    26928    0.59%
    800   332     2179.0000    20     2188.0000     2175.0000    28371    0.59%
    900   324     2180.0000    19     2188.0000     2175.0000    31956    0.59%
   1000   384     2181.6952    23     2188.0000     2175.0000    36862    0.59%
Elapsed time =  11.72 sec. (tree size =  0.31 MB, solutions = 4)
   1100   465     2176.0420    54     2188.0000     2175.0000    39465    0.59%
   1200   552     2180.0000    20     2188.0000     2175.0000    40953    0.59%
   1300   622     2178.0000    26     2188.0000     2175.0000    42855    0.59%
   1400   710     2180.0000    22     2188.0000     2175.0000    44123    0.59%
   1500   789     2177.0000    31     2188.0000     2175.0000    46623    0.59%
   1600   885     2186.0000    26     2188.0000     2175.0000    47592    0.59%
   1700   977     2178.0000    35     2188.0000     2175.0000    48952    0.59%
   1800  1066     2185.0000    24     2188.0000     2175.0000    50015    0.59%
   1900  1144     2178.0000    27     2188.0000     2175.0000    51553    0.59%
   2000  1219     2178.0000    26     2188.0000     2175.0000    55241    0.59%
Elapsed time =  17.72 sec. (tree size =  1.02 MB, solutions = 4)
*  2081+ 1185                         2185.0000     2175.0000    58286    0.46%
   2100  1204     2177.0000    24     2185.0000     2175.0000    58937    0.46%
   2200  1302     2179.0000    31     2185.0000     2175.0000    59682    0.46%
   2300  1390     2177.0000    32     2185.0000     2175.0000    61481    0.46%
   2400  1480     2179.0000    28     2185.0000     2175.0000    63073    0.46%
   2500  1559     2177.0051    34     2185.0000     2175.0000    64846    0.46%
   2600  1655     2183.0000    22     2185.0000     2175.0000    65806    0.46%
   2700  1744     2177.0000    28     2185.0000     2176.0000    67246    0.41%
   2800  1836     2180.0000    20     2185.0000     2176.0000    68245    0.41%
   2900  1917     2179.0000    27     2185.0000     2176.0000    70098    0.41%
   3000  2012     2183.0000    25     2185.0000     2176.0000    70856    0.41%
Elapsed time =  23.20 sec. (tree size =  1.70 MB, solutions = 5)
   3100  2100     2183.0000    31     2185.0000     2176.0000    72805    0.41%
   3200  2186     2180.0000    31     2185.0000     2176.0000    75426    0.41%
   3300  2280     2182.0136    31     2185.0000     2176.0000    76456    0.41%
   3400  2366     2178.0000    27     2185.0000     2176.0000    78490    0.41%
   3500  2458     2179.0000    26     2185.0000     2176.0000    80273    0.41%
   3600  2531     2179.0000    28     2185.0000     2176.0000    83336    0.41%
   3700  2626     2184.0000    33     2185.0000     2176.0000    84630    0.41%
   3800  2718     2179.0000    26     2185.0000     2176.0000    85976    0.41%
   3900  2813     2184.0000    33     2185.0000     2176.0000    87201    0.41%
   4000  2906     2179.0000    25     2185.0000     2176.0000    88760    0.41%
Elapsed time =  28.27 sec. (tree size =  2.52 MB, solutions = 5)
   4100  3002     2183.0000    19     2185.0000     2176.0000    90109    0.41%
   4200  3090     2179.0000    31     2185.0000     2176.0000    92007    0.41%
   4300  3184     2181.0000    20     2185.0000     2176.0000    93457    0.41%
   4400  3275     2182.4109    29     2185.0000     2176.0000    94499    0.41%
*  4481+ 2887                         2183.0000     2176.0000    96252    0.32%
   4500  2907     2179.0000    20     2183.0000     2176.0000    96461    0.32%
   4600  3005     2181.0000    30     2183.0000     2176.0000    97400    0.32%
   4700  3094     2181.0000    27     2183.0000     2176.0000    99057    0.32%
   4800  3188     2177.0000    28     2183.0000     2176.0000   100394    0.32%
   4900  3277     2177.0000    38     2183.0000     2176.0000   102355    0.32%
   5000  3369     2179.0000    29     2183.0000     2176.0000   104667    0.32%
Elapsed time =  33.08 sec. (tree size =  2.92 MB, solutions = 6)
   5100  3455     2177.0000    34     2183.0000     2176.0000   107242    0.32%
   5200  3552     2178.0000    32     2183.0000     2176.0000   108410    0.32%
   5300  3645     2180.1408    30     2183.0000     2176.0000   109960    0.32%
   5400  3732     2180.0000    33     2183.0000     2176.0000   112544    0.32%
   5500  3824     2178.0000    31     2183.0000     2176.0000   114704    0.32%
   5600  3922     2180.0000    32     2183.0000     2176.0000   115923    0.32%
   5700  4013     2177.0000    32     2183.0000     2176.0000   117246    0.32%
   5800  4107     2179.0000    31     2183.0000     2176.0000   118987    0.32%
   5900  4200     2180.3006    35     2183.0000     2176.0000   120185    0.32%
   6000  4285     2179.0000    35     2183.0000     2176.0000   122707    0.32%
Elapsed time =  38.55 sec. (tree size =  3.77 MB, solutions = 6)
   6100  4377     2177.0000    27     2183.0000     2176.0000   124294    0.32%
   6200  4470     2179.0000    27     2183.0000     2176.0000   125808    0.32%
   6300  4557     2178.0000    32     2183.0000     2176.0000   127690    0.32%
   6400  4655     2180.0000    32     2183.0000     2176.0000   128640    0.32%
   6500  4737     2178.0000    32     2183.0000     2176.0000   130623    0.32%
   6600  4832     2180.0000    20     2183.0000     2176.0000   131651    0.32%
   6700  4916     2177.0000    30     2183.0000     2176.0000   133691    0.32%
   6800  5012     2181.0000    31     2183.0000     2176.0000   134824    0.32%
   6900  5106     2178.0000    36     2183.0000     2176.0000   136463    0.32%
   7000  5203     2181.0000    21     2183.0000     2176.0000   137236    0.32%
Elapsed time =  42.69 sec. (tree size =  4.57 MB, solutions = 6)
   7100  5291     2179.0000    30     2183.0000     2176.0000   139025    0.32%
   7200  5388     2180.0000    22     2183.0000     2176.0000   140194    0.32%
*  7241+ 5089                         2182.0000     2176.0000   140926    0.27%
   7300  5143     2177.0000    32     2182.0000     2176.0000   142131    0.27%
*  7301+ 4290                         2181.0000     2176.0000   142173    0.23%
   7400  4380     2180.0000    24     2181.0000     2176.0000   144575    0.23%
*  7423+ 3208                         2180.0000     2176.0000   145152    0.18%
   7500  3279     2177.0000    28     2180.0000     2176.0000   146801    0.18%
   7600  3371     2178.0000    38     2180.0000     2176.0000   148698    0.18%
   7700  3458     2178.0034    37     2180.0000     2176.0000   151271    0.18%
   7800  3550     2179.0000    20     2180.0000     2176.0000   153270    0.18%
   7900  3637     2179.0000    29     2180.0000     2176.0000   156011    0.18%
   8000  3723     2178.0000    20     2180.0000     2176.0000   158888    0.18%
Elapsed time =  48.33 sec. (tree size =  3.30 MB, solutions = 9)
   8100  3815     2178.0000    33     2180.0000     2176.0000   160787    0.18%
   8200  3908     2178.0000    24     2180.0000     2176.0000   163162    0.18%
   8300  3998     2178.0000    27     2180.0000     2176.0000   165905    0.18%
   8400  4090     2178.0000    36     2180.0000     2176.0000   168192    0.18%
   8500  4181     2177.0000    50     2180.0000     2176.0000   169636    0.18%
   8600  4266     2179.0000    29     2180.0000     2176.0000   172527    0.18%
   8700  4352     2178.0000    25     2180.0000     2176.0000   174510    0.18%
   8800  4442     2177.0000    24     2180.0000     2176.0000   176338    0.18%
   8900  4541     2178.0000    27     2180.0000     2176.0000   177459    0.18%
   9000  4634     2178.0000    31     2180.0000     2176.0000   179263    0.18%
Elapsed time =  53.06 sec. (tree size =  4.11 MB, solutions = 9)
   9100  4725     2178.0000    20     2180.0000     2176.0000   181315    0.18%
   9200  4818     2177.0000    28     2180.0000     2176.0000   182639    0.18%
   9300  4908     2178.0000    27     2180.0000     2176.0000   185379    0.18%
   9400  4995     2177.0000    28     2180.0000     2176.0000   186984    0.18%
   9500  5094     2178.0000    35     2180.0000     2176.0000   188080    0.18%
   9600  5178     2176.0000    44     2180.0000     2176.0000   191061    0.18%
   9700  5276     2178.0000    33     2180.0000     2176.0000   192761    0.18%
   9800  5366     2179.0000    34     2180.0000     2176.0000   195738    0.18%
   9900  5453     2179.0000    26     2180.0000     2176.0000   198406    0.18%
  10000  5547     2178.0000    29     2180.0000     2176.0000   199937    0.18%
Elapsed time =  57.66 sec. (tree size =  4.93 MB, solutions = 9)
  10100  5637     2177.0000    47     2180.0000     2176.0000   201188    0.18%
  10200  5721     2179.0000    34     2180.0000     2176.0000   204630    0.18%
  10300  5808     2179.0000    28     2180.0000     2176.0000   206570    0.18%
  10400  5902     2178.0000    32     2180.0000     2176.0000   208562    0.18%
  10500  5991     2178.0000    22     2180.0000     2176.0000   210738    0.18%
  10600  6083     2178.0000    35     2180.0000     2176.0000   212190    0.18%
  10700  6175     2178.0000    31     2180.0000     2176.0000   214014    0.18%
  10800  6265     2179.0000    33     2180.0000     2176.0000   216657    0.18%
  10900  6355     2179.0000    24     2180.0000     2176.0000   219449    0.18%
  11000  6442     2179.0000    28     2180.0000     2176.0000   223168    0.18%
Elapsed time =  62.78 sec. (tree size =  5.73 MB, solutions = 9)
  11100  6528     2178.7944    39     2180.0000     2176.0000   226150    0.18%
  11200  6612     2178.0000    25     2180.0000     2176.0000   228729    0.18%
  11300  6703     2177.0000    31     2180.0000     2176.0000   230952    0.18%
  11400  6794     2179.0000    27     2180.0000     2176.0000   233724    0.18%
  11500  6888     2178.0000    22     2180.0000     2176.0000   235218    0.18%
  11600  6971     2178.0000    30     2180.0000     2176.0000   238194    0.18%
  11700  7065     2177.0000    31     2180.0000     2176.0000   240255    0.18%
  11800  7158     2177.0000    42     2180.0000     2176.0000   241579    0.18%
  11900  7251     2176.1677    41     2180.0000     2176.0000   243731    0.18%
  12000  7347     2178.0000    33     2180.0000     2176.0000   245502    0.18%
Elapsed time =  67.80 sec. (tree size =  6.54 MB, solutions = 9)
  12100  7427     2179.0000    41     2180.0000     2176.0000   249042    0.18%
  12200  7518     2179.0000    30     2180.0000     2176.0000   251449    0.18%
  12300  7605     2179.0000    29     2180.0000     2176.0000   254866    0.18%
  12400  7697     2179.0000    37     2180.0000     2176.0000   257152    0.18%
  12500  7788     2179.0000    26     2180.0000     2176.0000   259977    0.18%
  12600  7881     2179.0000    37     2180.0000     2176.0000   262213    0.18%
  12700  7974     2178.0000    31     2180.0000     2176.0000   264501    0.18%
  12800  8064     2179.0000    12     2180.0000     2176.0000   266931    0.18%
  12900  8149     2178.0000    28     2180.0000     2176.0000   269312    0.18%
  13000  8235     2179.0000    31     2180.0000     2176.0000   271921    0.18%
Elapsed time =  74.73 sec. (tree size =  7.47 MB, solutions = 9)
  13100  8324     2176.0000    47     2180.0000     2176.0000   274497    0.18%
  13200  8419    infeasible           2180.0000     2176.0000   276974    0.18%
  13300  8505     2178.0000    24     2180.0000     2176.0000   279944    0.18%
  13400  8605     2178.0000    28     2180.0000     2176.0000   280456    0.18%
  13500  8696     2179.0000    34     2180.0000     2176.0000   282622    0.18%
  13600  8785     2176.0000    38     2180.0000     2176.0000   285901    0.18%
  13700  8882     2179.0000    34     2180.0000     2176.0000   287628    0.18%
  13800  8974     2178.0000    27     2180.0000     2176.0000   290195    0.18%
  13900  9058     2179.0000    32     2180.0000     2176.0000   292639    0.18%
  14000  9152     2178.0000    25     2180.0000     2176.0000   294648    0.18%
Elapsed time =  80.94 sec. (tree size =  8.29 MB, solutions = 9)
  14100  9244     2178.0374    36     2180.0000     2176.0000   296893    0.18%
  14200  9334     2178.0000    36     2180.0000     2176.0000   299191    0.18%
  14300  9425     2177.0000    37     2180.0000     2176.0000   301203    0.18%
  14400  9517     2177.0000    33     2180.0000     2176.0000   302987    0.18%
  14500  9615     2179.0000    30     2180.0000     2176.0000   304506    0.18%
  14600  9709     2178.0000    40     2180.0000     2176.0000   307188    0.18%
  14700  9802     2177.0000    29     2180.0000     2176.0000   309588    0.18%
  14800  9895     2179.0000    37     2180.0000     2176.0000   311729    0.18%
  14900  9974     2177.0000    41     2180.0000     2176.0000   315048    0.18%
  15000 10068     2176.0000    48     2180.0000     2176.0000   317950    0.18%
Elapsed time =  87.16 sec. (tree size =  9.11 MB, solutions = 9)
  15100 10160     2177.0000    28     2180.0000     2176.0000   320619    0.18%
  15200 10257     2178.0000    30     2180.0000     2176.0000   322447    0.18%
  15300 10344     2179.0000    26     2180.0000     2176.0000   324397    0.18%
  15400 10437     2177.0000    49     2180.0000     2176.0000   326853    0.18%
  15500 10524     2177.0000    40     2180.0000     2176.0000   329941    0.18%
  15600 10612     2178.0000    40     2180.0000     2176.0000   332839    0.18%
  15700 10697     2177.0000    20     2180.0000     2176.0000   335600    0.18%
* 15751+ 7043                         2179.0000     2176.0000   336577    0.14%
  15800  7087     2177.0000    32     2179.0000     2176.0000   338069    0.14%
  15900  7172     2177.0000    35     2179.0000     2176.0000   341628    0.14%
  16000  7262     2177.0000    24     2179.0000     2176.0000   343838    0.14%
Elapsed time =  95.56 sec. (tree size =  6.60 MB, solutions = 10)
  16100  7353     2178.0000    37     2179.0000     2176.0000   346770    0.14%
  16200  7440     2178.0000    35     2179.0000     2176.0000   350305    0.14%
  16300  7532     2178.0000    32     2179.0000     2176.0000   353031    0.14%
  16400  7626     2178.0000    35     2179.0000     2176.0000   355583    0.14%
  16500  7703     2177.0000    28     2179.0000     2176.0000   359534    0.14%
  16600  7796     2178.0000    25     2179.0000     2176.0000   362107    0.14%
  16700  7881    infeasible           2179.0000     2176.0000   365206    0.14%
  16800  7972     2177.0000    27     2179.0000     2176.0000   367779    0.14%
  16900  8066     2177.0000    32     2179.0000     2176.0000   369922    0.14%
  17000  8160     2177.0000    35     2179.0000     2176.0000   371768    0.14%
Elapsed time = 102.94 sec. (tree size =  7.41 MB, solutions = 10)
  17100  8250     2178.0000    28     2179.0000     2176.0000   373908    0.14%
  17200  8337     2177.0000    27     2179.0000     2176.0000   377404    0.14%
  17300  8425     2177.0000    32     2179.0000     2176.0000   380162    0.14%
  17400  8513     2177.0000    30     2179.0000     2176.0000   383010    0.14%
  17500  8603     2178.0000    33     2179.0000     2176.0000   386085    0.14%
  17600  8685     2178.0000    38     2179.0000     2176.0000   389345    0.14%
  17700  8770     2177.0000    38     2179.0000     2176.0000   392596    0.14%
  17800  8863     2177.0000    30     2179.0000     2176.0000   395523    0.14%
  17900  8943     2177.0000    33     2179.0000     2176.0000   400489    0.14%
  18000  9034     2178.0000    36     2179.0000     2176.0000   402941    0.14%
Elapsed time = 112.16 sec. (tree size =  8.21 MB, solutions = 10)
  18100  9126     2178.0000    37     2179.0000     2176.0000   405424    0.14%
  18200  9210     2177.0000    30     2179.0000     2176.0000   409928    0.14%
  18300  9297     2176.0000    45     2179.0000     2176.0000   413107    0.14%
  18400  9390     2177.0000    38     2179.0000     2176.0000   416352    0.14%
  18500  9475     2177.0000    48     2179.0000     2176.0000   420003    0.14%
  18600  9563     2177.0000    36     2179.0000     2176.0000   423446    0.14%
  18700  9657     2177.0000    38     2179.0000     2176.0000   426648    0.14%
  18800  9741     2178.0000    36     2179.0000     2176.0000   430040    0.14%
  18900  9820     2178.0000    34     2179.0000     2176.0000   434521    0.14%
  19000  9908     2178.0000    33     2179.0000     2176.0000   437128    0.14%
Elapsed time = 120.83 sec. (tree size =  9.01 MB, solutions = 10)
  19100 10000     2178.0000    30     2179.0000     2176.0000   439305    0.14%
  19200 10083     2177.0000    35     2179.0000     2176.0000   442315    0.14%
  19300 10177     2177.0000    34     2179.0000     2176.0000   445291    0.14%
  19400 10262     2177.0406    40     2179.0000     2176.0000   448341    0.14%
  19500 10353     2178.0000    42     2179.0000     2176.0000   451419    0.14%
  19600 10438     2178.0000    39     2179.0000     2176.0000   454674    0.14%
  19700 10523     2177.0000    40     2179.0000     2176.0000   458536    0.14%
  19800 10616     2178.0000    37     2179.0000     2176.0000   460923    0.14%
  19900 10710     2178.0000    26     2179.0000     2176.0000   463085    0.14%
  20000 10794     2177.0000    28     2179.0000     2176.0000   466507    0.14%
Elapsed time = 129.08 sec. (tree size =  9.82 MB, solutions = 10)
  20100 10886     2177.0000    37     2179.0000     2176.0000   470584    0.14%
  20200 10978     2178.0000    30     2179.0000     2176.0000   473173    0.14%
  20300 11072     2177.0000    42     2179.0000     2176.0000   475240    0.14%
  20400 11153     2178.0000    36     2179.0000     2176.0000   479035    0.14%
  20500 11238     2176.0708    47     2179.0000     2176.0000   482170    0.14%
  20600 11324     2177.0000    30     2179.0000     2176.0000   484857    0.14%
  20700 11410     2177.0000    53     2179.0000     2176.0000   488410    0.14%
  20800 11498     2178.0000    37     2179.0000     2176.0000   492169    0.14%
  20900 11581     2178.0000    36     2179.0000     2176.0000   495082    0.14%
  21000 11660    infeasible           2179.0000     2176.0000   499472    0.14%
Elapsed time = 138.58 sec. (tree size = 10.61 MB, solutions = 10)
  21100 11748     2178.0000    27     2179.0000     2176.0000   502938    0.14%
  21200 11836     2177.0000    52     2179.0000     2176.0000   506433    0.14%
  21300 11916     2177.0000    44     2179.0000     2176.0000   511877    0.14%
  21400 12007     2178.0000    36     2179.0000     2176.0000   514643    0.14%
  21500 12091     2178.0000    31     2179.0000     2176.0000   518209    0.14%
  21600 12177     2178.0000    32     2179.0000     2176.0000   521621    0.14%
  21700 12268     2178.0000    33     2179.0000     2176.0000   525022    0.14%
  21800 12357     2177.0000    50     2179.0000     2176.0000   528524    0.14%
  21900 12446     2178.0000    26     2179.0000     2176.0000   532712    0.14%
  22000 12531     2176.0000    52     2179.0000     2176.0000   536968    0.14%
Elapsed time = 148.58 sec. (tree size = 11.41 MB, solutions = 10)
  22100 12616     2177.0000    20     2179.0000     2176.0000   540308    0.14%
* 22101+ 5567                         2178.0000     2176.0000   540309    0.09%
  22200  5643     2177.0000    34     2178.0000     2176.0000   545936    0.09%
  22300  5704     2177.0000    38     2178.0000     2176.0000   553364    0.09%
  22400  5780     2177.0000    40     2178.0000     2176.0000   560022    0.09%
  22500  5842    infeasible           2178.0000     2176.0000   567781    0.09%
  22600  5906     2177.0000    27     2178.0000     2176.0000   575391    0.09%
  22700  5987     2177.0000    40     2178.0000     2176.0000   580133    0.09%
  22800  6055    infeasible           2178.0000     2176.0000   586798    0.09%
  22900  6142     2177.0000    35     2178.0000     2176.0000   590180    0.09%
  23000  6225     2177.0000    42     2178.0000     2176.0000   595931    0.09%
Elapsed time = 165.91 sec. (tree size =  5.77 MB, solutions = 11)
  23100  6301     2177.0000    37     2178.0000     2176.0000   602501    0.09%
  23200  6376     2177.0000    42     2178.0000     2176.0000   610119    0.09%
  23300  6462    infeasible           2178.0000     2176.0000   614275    0.09%
  23400  6550     2177.0000    39     2178.0000     2176.0000   619091    0.09%
  23500  6633     2177.0000    45     2178.0000     2176.0000   624177    0.09%
  23600  6704     2176.3871    45     2178.0000     2176.0000   630773    0.09%
  23700  6778     2177.0000    39     2178.0000     2176.0000   637079    0.09%
  23800  6859     2177.0000    34     2178.0000     2176.0000   643695    0.09%
  23900  6937     2177.0000    37     2178.0000     2176.0000   648991    0.09%
  24000  7016    infeasible           2178.0000     2176.0000   654054    0.09%
Elapsed time = 183.36 sec. (tree size =  6.51 MB, solutions = 11)
  24100  7079     2176.4497    48     2178.0000     2176.0000   661233    0.09%
  24200  7147     2177.0000    41     2178.0000     2176.0000   668251    0.09%
  24300  7234     2177.0000    37     2178.0000     2176.0000   672683    0.09%
  24400  7310     2177.0000    36     2178.0000     2176.0000   675886    0.09%
  24500  7393     2177.0000    41     2178.0000     2176.0000   681394    0.09%
  24600  7477     2177.0000    40     2178.0000     2176.0000   685780    0.09%
  24700  7565    infeasible           2178.0000     2176.0000   689218    0.09%
  24800  7632     2177.0000    56     2178.0000     2176.0000   696710    0.09%
  24900  7704     2177.0000    30     2178.0000     2176.0000   702956    0.09%
  25000  7779     2177.0000    37     2178.0000     2176.0000   709057    0.09%
Elapsed time = 199.63 sec. (tree size =  7.22 MB, solutions = 11)
  25100  7856     2177.0000    42     2178.0000     2176.0000   713257    0.09%
  25200  7936     2177.0000    40     2178.0000     2176.0000   716909    0.09%
  25300  8015     2177.0000    35     2178.0000     2176.0000   720717    0.09%
  25400  8097     2177.0000    37     2178.0000     2176.0000   725152    0.09%
  25500  8182     2177.0000    67     2178.0000     2176.0000   730915    0.09%
  25600  8267     2177.0000    60     2178.0000     2176.0000   737071    0.09%
  25700  8350     2177.0000    43     2178.0000     2176.0000   741692    0.09%
  25800  8424    infeasible           2178.0000     2176.0000   746998    0.09%
  25900  8492     2177.0000    33     2178.0000     2176.0000   753175    0.09%
  26000  8578     2177.0000    43     2178.0000     2176.0000   756885    0.09%
Elapsed time = 214.03 sec. (tree size =  7.96 MB, solutions = 11)
  26100  8667     2177.0000    39     2178.0000     2176.0000   759803    0.09%
  26200  8746     2177.0000    36     2178.0000     2176.0000   764826    0.09%
  26300  8822    infeasible           2178.0000     2176.0000   768628    0.09%
  26400  8910     2177.0000    39     2178.0000     2176.0000   773162    0.09%
  26500  8997     2177.0000    32     2178.0000     2176.0000   777667    0.09%
  26600  9074     2177.0000    38     2178.0000     2176.0000   783129    0.09%
  26700  9155     2177.0000    39     2178.0000     2176.0000   788115    0.09%
  26800  9235    infeasible           2178.0000     2176.0000   792022    0.09%
  26900  9314     2177.0000    40     2178.0000     2176.0000   797603    0.09%
  27000  9395     2177.0000    34     2178.0000     2176.0000   802102    0.09%
Elapsed time = 227.22 sec. (tree size =  8.73 MB, solutions = 11)
  27100  9485     2177.0000    32     2178.0000     2176.0000   805362    0.09%
  27200  9561     2177.0000    28     2178.0000     2176.0000   809656    0.09%
  27300  9636     2177.0000    18     2178.0000     2176.0000   814989    0.09%
  27400  9724     2177.0000    32     2178.0000     2176.0000   818421    0.09%
  27500  9811     2177.0000    30     2178.0000     2176.0000   822470    0.09%
  27600  9894     2177.0000    42     2178.0000     2176.0000   827199    0.09%
  27700  9976     2177.0000    33     2178.0000     2176.0000   831849    0.09%
  27800 10055     2177.0000    26     2178.0000     2176.0000   835811    0.09%
  27900 10129     2177.0000    41     2178.0000     2176.0000   841542    0.09%
  28000 10219     2177.0000    23     2178.0000     2176.0000   844570    0.09%
Elapsed time = 241.06 sec. (tree size =  9.50 MB, solutions = 11)
  28100 10310     2177.0000    39     2178.0000     2176.0000   847349    0.09%
  28200 10398     2177.0000    36     2178.0000     2176.0000   852095    0.09%
  28300 10485     2177.0000    32     2178.0000     2176.0000   855802    0.09%
  28400 10570     2177.0000    34     2178.0000     2176.0000   860929    0.09%
  28500 10653     2177.0000    21     2178.0000     2176.0000   866366    0.09%
  28600 10740     2177.0000    27     2178.0000     2176.0000   872325    0.09%
  28700 10813     2177.0000    34     2178.0000     2176.0000   878125    0.09%
  28800 10895    infeasible           2178.0000     2176.0000   883083    0.09%
  28900 10972     2177.0000    39     2178.0000     2176.0000   888495    0.09%
  29000 11050     2177.0000    56     2178.0000     2176.0000   895850    0.09%
Elapsed time = 255.91 sec. (tree size = 10.28 MB, solutions = 11)
  29100 11133     2177.0000    48     2178.0000     2176.0000   901030    0.09%
  29200 11209     2177.0000    34     2178.0000     2176.0000   906894    0.09%
  29300 11292     2177.0000    43     2178.0000     2176.0000   912092    0.09%
  29400 11378     2177.0000    31     2178.0000     2176.0000   918598    0.09%
  29500 11462     2177.0000    38     2178.0000     2176.0000   924515    0.09%
  29600 11543     2177.0000    42     2178.0000     2176.0000   930569    0.09%
  29700 11625     2177.0000    41     2178.0000     2176.0000   935116    0.09%
  29800 11705     2176.0000    54     2178.0000     2176.0000   940930    0.09%
  29900 11789    infeasible           2178.0000     2176.0000   945642    0.09%
  30000 11876     2177.0000    35     2178.0000     2176.0000   950581    0.09%
Elapsed time = 273.17 sec. (tree size = 11.05 MB, solutions = 11)
  30100 11962     2177.0000    34     2178.0000     2176.0000   955241    0.09%
  30200 12044     2177.0000    34     2178.0000     2176.0000   958909    0.09%
  30300 12121     2177.0000    54     2178.0000     2176.0000   964145    0.09%
  30400 12211     2177.0000    34     2178.0000     2176.0000   968083    0.09%
  30500 12294     2177.0000    38     2178.0000     2176.0000   972534    0.09%
  30600 12378    infeasible           2178.0000     2176.0000   977236    0.09%
  30700 12448     2176.5413    75     2178.0000     2176.0000   984633    0.09%
  30800 12524     2177.0000    38     2178.0000     2176.0000   989818    0.09%
  30900 12605     2177.0000    37     2178.0000     2176.0000   994616    0.09%
  31000 12691     2177.0000    42     2178.0000     2176.0000   999171    0.09%
Elapsed time = 287.42 sec. (tree size = 11.81 MB, solutions = 11)
  31100 12762     2177.0000    40     2178.0000     2176.0000  1007580    0.09%
  31200 12827     2177.0000    24     2178.0000     2176.0000  1015417    0.09%
  31300 12900     2177.0000    52     2178.0000     2176.0000  1020893    0.09%
  31400 12979     2177.0000    30     2178.0000     2176.0000  1026372    0.09%
  31500 13061     2176.0000    63     2178.0000     2176.0000  1032543    0.09%
* 31541+  144                         2177.0000     2176.0000  1035432    0.05%
  31600   130     2176.0000    47     2177.0000     2176.0000  1053351    0.05%
  31700   132     2176.0000    42     2177.0000     2176.0000  1076026    0.05%
  31800   118    infeasible           2177.0000     2176.0000  1101724    0.05%
  31900   126    infeasible           2177.0000     2176.0000  1124299    0.05%
  32000   118     2176.0000    63     2177.0000     2176.0000  1143212    0.05%
Elapsed time = 338.83 sec. (tree size =  0.36 MB, solutions = 12)
  32100    86    infeasible           2177.0000     2176.0000  1175048    0.05%
  32200    64    infeasible           2177.0000     2176.0000  1204014    0.05%
  32300    24    infeasible           2177.0000     2176.0000  1236536    0.05%

Cover cuts applied:  512
Mixed integer rounding cuts applied:  28
Gomory fractional cuts applied:  12

Solution pool: 12 solutions saved.

MIP - Integer optimal solution:  Objective = 2.1770000000e+003
Solution time =  384.30 sec.  Iterations = 1265651  Nodes = 32389


Incumbent solution
Variable Name           Solution Value
Cmax                       2177.000000
X_1_4                         1.000000
X_2_4                         1.000000
X_3_9                         1.000000
X_4_9                         1.000000
X_5_8                         1.000000
X_6_3                         1.000000
X_7_2                         1.000000
X_8_2                         1.000000
X_9_8                         1.000000
X_10_6                        1.000000
X_11_5                        1.000000
X_12_4                        1.000000
X_13_2                        1.000000
X_14_2                        1.000000
X_15_7                        1.000000
X_16_8                        1.000000
X_17_6                        1.000000
X_18_6                        1.000000
X_19_3                        1.000000
X_20_4                        1.000000
X_21_4                        1.000000
X_22_3                        1.000000
X_23_5                        1.000000
X_24_1                        1.000000
X_25_1                        1.000000
X_26_7                        1.000000
X_27_6                        1.000000
X_28_10                       1.000000
X_29_8                        1.000000
X_30_1                        1.000000
X_31_5                        1.000000
X_32_9                        1.000000
X_33_5                        1.000000
X_34_1                        1.000000
X_35_1                        1.000000
X_36_4                        1.000000
X_37_1                        1.000000
X_38_7                        1.000000
X_39_3                        1.000000
X_40_7                        1.000000
X_41_7                        1.000000
X_42_2                        1.000000
X_43_1                        1.000000
X_44_8                        1.000000
X_45_3                        1.000000
X_46_5                        1.000000
X_47_10                       1.000000
X_48_3                        1.000000
X_49_10                       1.000000
X_50_5                        1.000000
X_51_9                        1.000000
X_52_7                        1.000000
X_53_8                        1.000000
X_54_7                        1.000000
X_55_8                        1.000000
X_56_4                        1.000000
X_57_4                        1.000000
X_58_8                        1.000000
X_59_7                        1.000000
X_60_8                        1.000000
X_61_7                        1.000000
X_62_1                        1.000000
X_63_7                        1.000000
X_64_1                        1.000000
X_65_3                        1.000000
X_66_2                        1.000000
X_67_3                        1.000000
X_68_2                        1.000000
X_69_5                        1.000000
X_70_8                        1.000000
X_71_6                        1.000000
X_72_2                        1.000000
X_73_10                       1.000000
X_74_4                        1.000000
X_75_4                        1.000000
X_76_6                        1.000000
X_77_6                        1.000000
X_78_9                        1.000000
X_79_1                        1.000000
X_80_9                        1.000000
X_81_2                        1.000000
X_82_9                        1.000000
X_83_4                        1.000000
X_84_5                        1.000000
X_85_1                        1.000000
X_86_6                        1.000000
X_87_3                        1.000000
X_88_5                        1.000000
X_89_10                       1.000000
X_90_4                        1.000000
X_91_4                        1.000000
X_92_5                        1.000000
X_93_2                        1.000000
X_94_10                       1.000000
X_95_3                        1.000000
X_96_10                       1.000000
X_97_10                       1.000000
X_98_6                        1.000000
X_99_8                        1.000000
X_100_5                       1.000000
X_101_8                       1.000000
X_102_2                       1.000000
X_103_8                       1.000000
X_104_3                       1.000000
X_105_5                       1.000000
X_106_5                       1.000000
X_107_3                       1.000000
X_108_10                      1.000000
X_109_1                       1.000000
X_110_10                      1.000000
X_111_4                       1.000000
X_112_5                       1.000000
X_113_6                       1.000000
X_114_7                       1.000000
X_115_1                       1.000000
X_116_2                       1.000000
X_117_5                       1.000000
X_118_9                       1.000000
X_119_9                       1.000000
X_120_9                       1.000000
X_121_6                       1.000000
X_122_4                       1.000000
X_123_10                      1.000000
X_124_3                       1.000000
X_125_2                       1.000000
X_126_2                       1.000000
X_127_10                      1.000000
X_128_6                       1.000000
X_129_2                       1.000000
X_130_7                       1.000000
X_131_4                       1.000000
X_132_8                       1.000000
X_133_3                       1.000000
X_134_6                       1.000000
X_135_9                       1.000000
X_136_7                       1.000000
X_137_8                       1.000000
X_138_7                       1.000000
X_139_7                       1.000000
X_140_2                       1.000000
X_141_6                       1.000000
X_142_8                       1.000000
X_143_10                      1.000000
X_144_6                       1.000000
X_145_3                       1.000000
X_146_8                       1.000000
X_147_9                       1.000000
X_148_9                       1.000000
X_149_2                       1.000000
X_150_10                      1.000000
X_151_9                       1.000000
X_152_7                       1.000000
X_153_7                       1.000000
X_154_3                       1.000000
X_155_5                       1.000000
X_156_9                       1.000000
X_157_6                       1.000000
X_158_4                       1.000000
X_159_3                       1.000000
X_160_6                       1.000000
X_161_1                       1.000000
X_162_1                       1.000000
X_163_5                       1.000000
X_164_6                       1.000000
X_165_9                       1.000000
X_166_5                       1.000000
X_167_9                       1.000000
X_168_1                       1.000000
X_169_1                       1.000000
X_170_8                       1.000000
X_171_2                       1.000000
X_172_6                       1.000000
X_173_10                      1.000000
X_174_10                      1.000000
X_175_5                       1.000000
X_176_10                      1.000000
X_177_9                       1.000000
X_178_7                       1.000000
X_179_4                       1.000000
X_180_1                       1.000000
X_181_2                       1.000000
X_182_4                       1.000000
X_183_9                       1.000000
X_184_6                       1.000000
X_185_8                       1.000000
X_186_4                       1.000000
X_187_1                       1.000000
X_188_8                       1.000000
X_189_3                       1.000000
X_190_1                       1.000000
X_191_10                      1.000000
X_192_5                       1.000000
X_193_7                       1.000000
X_194_3                       1.000000
X_195_9                       1.000000
X_196_3                       1.000000
X_197_10                      1.000000
X_198_10                      1.000000
X_199_2                       1.000000
X_200_7                       1.000000
All other variables in the range 1-2001 are 0.
